Reading model...
...model read.
creating competitive generators file...
...competitive generators recorded.
Loading data...
.. real-time data read.
Compiling instance...
1800.0
150.0
1522.9653959999996
126.91378299999997
...instance created.
Creating Offer Mitigation (model will solve as dispatch if TRUE)...
...storage offer mitigation file created
Converting model to MPEC...
...converted
NOTE: initial MIP solve with only storage competitive to get feasible solution
Solving...

Welcome to IBM(R) ILOG(R) CPLEX(R) Interactive Optimizer 12.9.0.0
  with Simplex, Mixed Integer & Barrier Optimizers
5725-A06 5725-A29 5724-Y48 5724-Y49 5724-Y54 5724-Y55 5655-Y21
Copyright IBM Corp. 1988, 2019.  All Rights Reserved.

Type 'help' for a list of available commands.
Type 'help' followed by a command name for more
information on commands.

CPLEX> Logfile 'cplex.log' closed.
Logfile 'C:\Users\llavin\Desktop\test826\logs\tmp_cd1nt5s.cplex.log' open.
CPLEX> New value for parallel optimization mode: -1
CPLEX> New value for mixed integer optimality gap tolerance: 0.05
CPLEX> New value for feasibility tolerance: 1e-09
CPLEX> New value for emphasis for MIP optimization: 1
CPLEX> New value for deterministic time limit in ticks: 100000
CPLEX> Problem 'C:\Users\llavin\Desktop\test826\logs\tmpos4iv2pl.pyomo.lp' read.
Read time = 0.53 sec. (28.51 ticks)
CPLEX> Problem name         : C:\Users\llavin\Desktop\test826\logs\tmpos4iv2pl.pyomo.lp
Objective sense      : Maximize
Variables            :  107783  [Nneg: 1,  Box: 44058,  Free: 8928,
                                 Binary: 54796]
Objective nonzeros   :   17571
Linear constraints   :  246901  [Less: 82864,  Greater: 118424,  Equal: 45613]
  Nonzeros           :  618317
  RHS nonzeros       :  135027

Variables            : Min LB: -5000.000        Max UB: 1000000.       
Objective nonzeros   : Min   : 0.008333333      Max   : 208.3333       
Linear constraints   :
  Nonzeros           : Min   : 0.008333333      Max   : 1000000.       
  RHS nonzeros       : Min   : 0.008333333      Max   : 1000000.       
CPLEX> CPXPARAM_Parallel                                -1
CPXPARAM_Emphasis_MIP                            1
CPXPARAM_Simplex_Tolerances_Feasibility          1.0000000000000001e-09
CPXPARAM_DetTimeLimit                            100000
CPXPARAM_MIP_Tolerances_MIPGap                   0.050000000000000003
Tried aggregator 3 times.
MIP Presolve eliminated 181152 rows and 41085 columns.
MIP Presolve added 6192 rows and 0 columns.
MIP Presolve modified 51330 coefficients.
Aggregator did 25861 substitutions.
Reduced MIP has 46080 rows, 39317 columns, and 136582 nonzeros.
Reduced MIP has 15490 binaries, 0 generals, 0 SOSs, and 0 indicators.
Presolve time = 0.63 sec. (375.57 ticks)
Probing fixed 842 vars, tightened 9443 bounds.
Probing time = 0.38 sec. (14.38 ticks)
Tried aggregator 2 times.
MIP Presolve eliminated 1874 rows and 1732 columns.
MIP Presolve modified 10627 coefficients.
Aggregator did 96 substitutions.
Reduced MIP has 44110 rows, 37489 columns, and 127769 nonzeros.
Reduced MIP has 14648 binaries, 0 generals, 0 SOSs, and 0 indicators.
Presolve time = 0.23 sec. (209.76 ticks)
Probing fixed 0 vars, tightened 3866 bounds.
Probing time = 0.42 sec. (14.19 ticks)
Clique table members: 69994.
MIP emphasis: integer feasibility.
MIP search method: dynamic search.
Parallel mode: opportunistic, using up to 32 threads.
Root relaxation solution time = 1.45 sec. (2048.82 ticks)

        Nodes                                         Cuts/
   Node  Left     Objective  IInf  Best Integer    Best Bound    ItCnt     Gap

      0     0    11307.7272   398                  11307.7272     7790         
      0     0    11307.3828   136               Flowcuts: 132     7866         
      0     0    11307.1451   133                    Cuts: 34     7898         
      0     0    11307.1451   133                     Cuts: 5     7905         
      0    27    11069.9032    96                   Covers: 3     8639         
Elapsed time = 8.74 sec. (4915.43 ticks, tree = 0.02 MB, solutions = 0)
    427   104    11186.8771   112                  11302.3488     9996         
    872   514    11279.4898    90                  11302.0834    13694         
   1280   914    11285.9907   107                  11302.0834    21118         
   1513  1232    11181.7338    54                  11302.0834    26308         
   1831  1426    11054.1275    67                  11302.0834    30681         
*  2158+ 2027                        10637.0580    11302.0834             6.25%
*  2276  2009      integral     0    10637.0656    11302.0834    67175    6.25%
   2526  1857    10631.6013    23    10637.0656    11302.0834    51348    6.25%
   2888  2258    10680.8248    24    10637.0656    11302.0834    88980    6.25%
   3215  2267    11183.1836    90    10637.0656    11302.0834    90691    6.25%
   4405  3183    10663.0490    60    10641.4173    11302.0834   149161    6.21%
Elapsed time = 27.86 sec. (8014.15 ticks, tree = 42.18 MB, solutions = 5)
*  5273  3680      integral     0    10645.9213    11302.0834   202955    6.16%
   5573  3934    11095.5189    73    10645.9213    11302.0834   217719    6.16%

Clique cuts applied:  9
Cover cuts applied:  27
Implied bound cuts applied:  14
Flow cuts applied:  268
Mixed integer rounding cuts applied:  70
Gomory fractional cuts applied:  11

Root node processing (before b&c):
  Real time             =    6.02 sec. (4875.27 ticks)
Parallel b&c, 32 threads:
  Real time             =   34.22 sec. (8831.10 ticks)
  Sync time (average)   =    1.80 sec.
  Wait time (average)   =    0.00 sec.
                          ------------
Total (root+branch&cut) =   40.24 sec. (13706.36 ticks)

Solution pool: 6 solutions saved.

MIP - Integer optimal, tolerance (0.05/1e-06):  Objective =  1.0645921318e+04
Current MIP best bound =  1.0973557934e+04 (gap = 327.637, 3.08%)
Solution time =   40.28 sec.  Iterations = 263605  Nodes = 5743 (4230)
Deterministic time = 13706.67 ticks  (340.28 ticks/sec)

CPLEX> Incumbent solution written to file 'C:\Users\llavin\Desktop\test826\logs\tmptv6yr1ci.cplex.sol'.
CPLEX> NOTE: no warmstart specified for MIP iteration, default behavior is true
NOTE: resolving with all competitive generators using storage-only solution to warmstart
Solving...

Welcome to IBM(R) ILOG(R) CPLEX(R) Interactive Optimizer 12.9.0.0
  with Simplex, Mixed Integer & Barrier Optimizers
5725-A06 5725-A29 5724-Y48 5724-Y49 5724-Y54 5724-Y55 5655-Y21
Copyright IBM Corp. 1988, 2019.  All Rights Reserved.

Type 'help' for a list of available commands.
Type 'help' followed by a command name for more
information on commands.

CPLEX> Logfile 'cplex.log' closed.
Logfile 'C:\Users\llavin\Desktop\test826\logs\tmpwtr_ie9f.cplex.log' open.
CPLEX> New value for parallel optimization mode: -1
CPLEX> New value for mixed integer optimality gap tolerance: 0.05
CPLEX> New value for feasibility tolerance: 1e-09
CPLEX> New value for emphasis for MIP optimization: 1
CPLEX> New value for deterministic time limit in ticks: 100000
CPLEX> Problem 'C:\Users\llavin\Desktop\test826\logs\tmpovzhrshe.pyomo.lp' read.
Read time = 0.53 sec. (28.56 ticks)
CPLEX> MIP start file 'C:\Users\llavin\Desktop\test826\logs\tmpcnp8mda5.cplex.mst' read.
CPLEX> Problem name         : C:\Users\llavin\Desktop\test826\logs\tmpovzhrshe.pyomo.lp
Objective sense      : Maximize
Variables            :  109223  [Nneg: 1,  Box: 45498,  Free: 8928,
                                 Binary: 54796]
Objective nonzeros   :   18963
Linear constraints   :  246901  [Less: 82864,  Greater: 118424,  Equal: 45613]
  Nonzeros           :  618317
  RHS nonzeros       :  135027

Variables            : Min LB: -5000.000        Max UB: 1000000.       
Objective nonzeros   : Min   : 0.008333333      Max   : 208.3333       
Linear constraints   :
  Nonzeros           : Min   : 0.008333333      Max   : 1000000.       
  RHS nonzeros       : Min   : 0.008333333      Max   : 1000000.       
CPLEX> CPXPARAM_Parallel                                -1
CPXPARAM_Emphasis_MIP                            1
CPXPARAM_Simplex_Tolerances_Feasibility          1.0000000000000001e-09
CPXPARAM_DetTimeLimit                            100000
CPXPARAM_MIP_Tolerances_MIPGap                   0.050000000000000003
Warning:  No solution found from 1 MIP starts.
Retaining values of one MIP start for possible repair.
Tried aggregator 3 times.
MIP Presolve eliminated 181152 rows and 42525 columns.
MIP Presolve added 6192 rows and 0 columns.
MIP Presolve modified 51330 coefficients.
Aggregator did 25861 substitutions.
Reduced MIP has 46080 rows, 39317 columns, and 136582 nonzeros.
Reduced MIP has 15490 binaries, 0 generals, 0 SOSs, and 0 indicators.
Presolve time = 0.61 sec. (376.28 ticks)
Probing fixed 842 vars, tightened 9443 bounds.
Probing time = 0.36 sec. (14.38 ticks)
Tried aggregator 2 times.
MIP Presolve eliminated 1874 rows and 1732 columns.
MIP Presolve modified 10627 coefficients.
Aggregator did 96 substitutions.
Reduced MIP has 44110 rows, 37489 columns, and 127769 nonzeros.
Reduced MIP has 14648 binaries, 0 generals, 0 SOSs, and 0 indicators.
Presolve time = 0.22 sec. (209.77 ticks)
Probing fixed 0 vars, tightened 3866 bounds.
Probing time = 0.41 sec. (14.19 ticks)
Clique table members: 69994.
MIP emphasis: integer feasibility.
MIP search method: dynamic search.
Parallel mode: opportunistic, using up to 32 threads.
Root relaxation solution time = 0.84 sec. (573.86 ticks)

        Nodes                                         Cuts/
   Node  Left     Objective  IInf  Best Integer    Best Bound    ItCnt     Gap

      0     0    41185.1680   639                  41185.1680       30         
      0     0    41152.9782   340               Flowcuts: 334      362         
      0     0    41150.7927   349                   Cuts: 158      506         
      0     0    41150.0341   289                    Cuts: 18      547         
Repair heuristic found nothing.
      0     7    41149.4396   274                     Cuts: 5      586         
Elapsed time = 7.14 sec. (3402.86 ticks, tree = 0.02 MB, solutions = 0)
    405   151    41135.1520   277                  41144.1839     2499         
    729   560    41084.4761   260                  41144.1839     9659         
   1352   758    41094.5697   239                  41144.1839    11827         
   1741  1568    40941.3080   257                  41144.1839    17424         
   2205  2073    41096.0855   221                  41144.1839    27196         
   2695  2040    41095.7461   195                  41144.1839    26596         
   3152  2503    41034.2739   180                  41144.1839    35414         
   3531  2793    41033.7637   151                  41144.1839    40080         
   3859  3551    41086.4186   218                  41144.1839    59770         
   5317  4270    infeasible                        41144.1839    80071         
Elapsed time = 27.58 sec. (6506.42 ticks, tree = 69.59 MB, solutions = 0)
   6518  5729    40231.7083    80                  41144.1839   144886         
   8047  6815    40485.3036   233                  41144.1839   182698         
*  8371  7117      integral     0    39931.6819    41144.1839   188825    3.04%

Cover cuts applied:  8
Implied bound cuts applied:  4
Flow cuts applied:  345
Mixed integer rounding cuts applied:  1

Root node processing (before b&c):
  Real time             =    5.08 sec. (3372.24 ticks)
Parallel b&c, 32 threads:
  Real time             =   34.14 sec. (5588.67 ticks)
  Sync time (average)   =    1.43 sec.
  Wait time (average)   =    0.00 sec.
                          ------------
Total (root+branch&cut) =   39.22 sec. (8960.91 ticks)

Solution pool: 1 solution saved.

MIP - Integer optimal, tolerance (0.05/1e-06):  Objective =  3.9931681938e+04
Current MIP best bound =  4.1144183866e+04 (gap = 1212.5, 3.04%)
Solution time =   39.23 sec.  Iterations = 221111  Nodes = 8641 (7079)
Deterministic time = 8961.23 ticks  (228.40 ticks/sec)

CPLEX> Incumbent solution written to file 'C:\Users\llavin\Desktop\test826\logs\tmppre1b8o_.cplex.sol'.
CPLEX> Exporting results... 
